
 102   30
  10   10   10   10   10   10   10   10   10   10   10   10   10   10   10   10   10   10   10   10   10   10   10   10   10   10   10   10   10   10

   0   0   0   0   0   0   0   0   0   0   0   0   0   0   0   0   0   0   0   0   0   0   0   0   0   0   0   0   0   0   0  32 2 3 4 5 6 7 8 9 10 11 12 13 15 16 17 18 19 20 21 22 23 25 27 28 29 30 32 34 37 40 44 60 
   2   0   0   0   0   0   0   0   1   0   0   1   0   0   0   1   0   0   0   0   0   0   0   0   0   0   0   0   0   0   0  16 99 98 76 75 74 67 61 57 54 51 48 38 35 33 31 26 
   9   0   0   0   2   0   0   1   0   0   0   0   2   0   0   0   1   0   0   0   0   0   0   2   2   0   0   0   0   1   0  16 100 99 92 76 75 56 54 53 52 51 50 49 42 39 35 31 
   1   0   0   0   0   0   1   0   0   0   1   0   0   0   0   0   0   0   1   0   0   0   0   0   0   0   0   0   0   0   0  10 76 74 67 58 57 51 49 43 36 14 
  10   0   0   1   0   0   0   0   0   0   0   0   0   0   0   0   0   0   0   5   0   0   1   0   0   0   1   0   0   5   0  18 101 99 98 75 73 72 70 67 66 58 54 53 50 48 46 43 35 33 
   3   0   2   0   0   0   0   5   0   0   0   0   0   0   0   0   0   0   0   0   0   0   0   0   0   0   4   1   0   0   0  12 75 74 72 66 53 50 49 48 43 39 35 24 
   9   0   0   0   0   0   0   0   0   0   0   0   0   0   0   0   0   0   0   0   0   1   0   0   0   0   0   0   0   0   0  18 99 97 76 74 73 72 71 70 67 61 58 57 55 54 51 48 43 36 
   5   0   0   0   8   0   0   0   0   0   0   0  10   0   0   0   0   3   0   0   1   0   0   0   0   0   0   0   0   0   0  17 99 97 74 73 72 71 70 67 63 62 61 54 53 51 49 43 36 
  10   0   0   0   0   0   0   0   0   0   0   0   0   0   0   0  10   0   0   0   0   0   0   0   0   0   0   0   0   0   0  14 100 99 98 75 70 63 61 58 57 54 46 45 38 26 
   3   0   0   0   0   0   5   0   0   0   0   1   0   0   1   7   0   0   5   0   0   0   0   0   0   1   0   0   0   8   0  18 99 98 76 74 73 72 70 66 63 61 59 56 54 48 46 45 43 35 
   6   0   6   0   0   0   6   6   0   0   0   0   0   1   0  10   0   0   0   0   0   0   0   0   0   0   0   0   0   0   0  14 101 75 74 70 67 57 56 54 48 46 43 39 38 35 
   5   0   5   0   0   0   0   0   0   0   0   0   0   0   0   0   0   0   6   0   0   0   0   0   0   0   0   7   0   0   1  14 101 73 71 70 63 62 59 57 53 50 48 46 42 39 
   9   0   0   0   0   0   0   0   0   0   0   0   0   0   0   0   0   0   0   0   0   0   0   6   0   0   0   7   0   0   0  16 95 76 75 73 72 70 68 67 63 62 61 56 53 50 48 43 
   1   3   0   0   0   0   0   0   0   2   4   0   0   0   0   0   0   0   0   0   0   0   0   0   0   0   0   0   0   0   0   9 99 98 89 70 63 62 54 38 26 
   3   0   0   0   0   0   7   0   0   0   0   0   0   0   0   0   0   0   0   0   0   0   0   0   0   0   0   0   0   0   0  14 101 100 98 97 92 90 72 71 70 67 58 50 48 35 
   7   3   0   0   0   0   0   0   0   0   9   0   0   0   0   6   0   0   0   0   5   0   5   6   0   0   7   0   0   5   0  14 101 100 95 94 93 89 75 62 59 57 55 51 48 47 
  10  10   0   9   0   5   0   0   0   6   0   0   0   0   0   0   0   0   0   3   0   0   0   0   0   0   0   0   1   0   0   9 75 70 67 66 62 61 46 43 33 
  10   0   0   0   0   0   0   0   5   0   7   0   0   0   0   0   0   0   0   0   0   0   0   6   0   0   7   0   0   6   4  14 100 98 95 91 89 87 76 74 71 68 62 53 50 41 
   1   0   0   0   0   0   0   0   0   0   0   0   0   0   0   5   0   0   0   0   0   0   0   0   0   0   0   0   0   0   0  15 100 99 97 96 94 93 91 85 73 66 65 63 56 48 46 
   4   0   0   0   0   0   0   0   0   0   0   0   0   0   0   0   0   0   0   6   0   4   0   0   0   0   0   0   0   0   0  15 100 98 96 95 92 91 85 74 68 66 54 53 52 50 48 
   6   0   0   0   0   0   0   0   0   0   0   8   0   4   0   0   7   0   0   0   0   0   0   0   0   0   6   0   0   0   0   7 99 92 91 75 47 43 36 
   4   0   0   0   0   0   0   0   0   0   0   0   0   0   0   0   4   0   0   0   0   0   0   0   2   0   0   0   8   0   0  14 101 98 96 95 89 87 76 75 71 68 66 62 53 41 
   3   0   0   0   6   0   0   0   0   0   0   0   0   7   0   0   0   0   0   0   0   7   0   0  10   0   0   0   0   0   0  11 96 87 73 71 68 63 62 54 50 48 39 
   4   0   0   5   0   0   0   0   0   0   0  10   0   0   0   0   5   0   0   0   0   0   0   0   0   0   0   0   0   9   0  15 100 99 98 91 87 85 73 70 69 68 65 63 58 57 56 
   7   0   0   7   0   0   0   0   0   0   0   0   0   0   0   0   0   0   0   0   1   0   7   8   0   0   0   0   0   0   0  12 96 95 92 90 89 87 72 71 68 62 50 48 
   8   0   6   0   0   0   0   0   3   0   7   9   0   5  10   4   5   0   0   0   3   0   0   0   0   0   8   0   0   0   0  14 97 96 95 92 91 87 86 85 73 71 68 64 53 50 
   6   0   7   0   0   0   7   0   9   0   0   0   0   0   0   0   0   0   0   0   0   0   7   0   0   0   0   7   0   0   0  19 100 98 95 94 93 91 90 88 87 85 84 83 82 72 71 69 65 63 57 
   3   0   0   0   0   0   0   0   0   8   0   0   0   5   0   0   0   3   0  10   0   0   0   0   0   5   0   0   6   0   9  16 100 98 97 96 95 92 89 88 87 82 81 79 76 68 62 51 
   1   8   0   0   0   0   0   0   0   0   0   0   0   0   0   4   0   0   0   0   0   0   0   0   0   0   0   0   0   0   0  13 96 94 93 90 88 86 85 81 66 65 64 61 46 
   1   0   0   0   3   0   0   0   0   0   6   4   0   0   0   0   0   0   0   0   0   0   8   0   0   0   0   0   0   0   0  17 101 99 96 91 90 89 87 85 83 82 79 76 74 72 66 65 63 
   1   0   0   0   0   0   0   0   0   0   0   0   0   0   0   8   0   0   0   0   0   0   0   4   0   0   0   0   0   7   0  11 101 93 91 84 81 71 70 65 64 62 46 
   9   7   0   0  10   0   0   0   0   4   0   0   0   0   0   0   9   8   0   0   5   0   0   0   0   0   0   0   0   0   0  15 99 98 95 92 89 88 87 80 79 74 73 68 65 64 62 
   9   0   0   0   0   0   0   0   0   0   0   0   3   6   0   0   0   0   0  10   0   0   0   0   0   0   0   0   0   0   0  14 100 97 91 90 89 88 87 85 84 80 71 68 64 63 
  10   0   0   0   9   3   8   0   0   6   0   0   0  10   5   0   0   0   0   0   0   4   0   0  10   2   0   0   5   0   0  14 99 95 91 90 88 87 85 80 72 70 68 65 64 63 
   4   0   0   0   0   5   6   8   4   0   0   0   0   0   0   0   0   0   0   0   9   0   0   5   0   0   0   0   0   0   0  14 95 94 93 91 89 88 87 84 81 80 68 65 64 62 
   7   0   0   7   0   0   0   0   0   0   0   0   0   0   0   0   0   0   0   0   7   7   0   0   6   0   0   0   0   0   0  10 101 95 88 86 85 84 69 68 64 50 
   5   4   0   0   0   0   0   0   0   0   0   0   0   0   0   0   0   0   3   0   0   5   0   0   8   0   0   0   0   0   0  14 97 94 93 92 88 87 86 85 80 77 70 68 67 64 
   4   0   0   0   4   0   0   0   0   0   0   0   0  10   0   0   0   0   0   0   0   0   8   0   0   0   0   7   0   0   0   9 96 86 85 84 72 71 69 64 50 
   6   0   0   4   0   0   0   0   0   0   0   6   0   0   0   0   0   0   0   0   0   0   0   4   0   0   0   0   0   0   0  14 97 94 91 90 89 88 85 84 83 81 80 79 65 64 
   6   0   0   0   0   0   0   0   6   0   0   0   0   0   0   0   0   0   0   0   0   0   0   0   0   0   0   6   7   0   0  11 93 91 90 89 84 83 81 70 69 66 64 
   1   0   0   0   0   0   0   0   0   0   0   0   0   8   0   0   0   0   0   0   0   0   0  10   0   0   0   0   0   0   9   6 92 90 83 73 72 48 
  10   0   0   0   0   4   0   0   0   0   0   5   0   0   0   0   0   7   0   0   0   0   0   0   0   0   0   0   0   0   0  10 96 94 93 88 85 80 74 72 69 65 
   7   0   0   0   0   0   0   0   0   0   0   4   0   0   0   0   0   0   0   0   0   8   0   0   0   9   0   0   0   0   0  10 96 93 90 89 87 86 81 80 65 64 
   5   0   0   0   0   0   0   0  10   0   8   0   0   7   0   0   0   0   0   0   7   0   0   0   0   0   0   0   0   0   0   9 94 92 86 80 77 75 70 69 64 
   9   0   0   0   0   0   5   0   0   0   0   0   0   0   0   0   0   0  10   3   0   0   0   0   0   5   0   0   0   7   0   7 94 91 89 87 82 68 62 
   6   0   0   0   0   0   4   0   0   0   0   0   0   0   8   0   0   0   0   0   0   0   7   0   0   0   0   0   0   0   0   8 95 89 87 80 78 77 69 68 
   8   0   0   8   0   0   7   0   0   0   0   0   0   0   0   0   0   0   0   0   0   0   0   0   6   0   0   0   6   0   0   7 96 82 80 77 71 70 68 
   3   0   0   0   0   0   0   0   0   0   0   0  10   0   0   0   0   0   0   0   0   5   0   7   3   0   0   0   0   7   8   6 88 84 81 80 69 64 
   1   0   0   0   0   0   0   0   0   6   0   0   0   0   0   0   0   0   0   0   0   0   0   0   0   0   0   5   0   0   0   7 98 89 86 85 79 78 68 
   1   4   0   3   2   0   0   0   0   0   0   0   3   7   0   0   0   0   0   0   0   0   8   0   0   0   0   0   8   0   0   6 94 93 81 80 79 65 
   9   0   3   0   0   0   8   0   0   0   0   0   0   0   0   0   0   0   6   0   0   0   5   0   0   0   0   0   0   0   0   6 91 90 84 83 78 66 
   8   0   0   0   0   0   0   0   0   0   0   0   5   4   0   0   0   0   6   0   0   5   0   0   0   0   0   0   8   0   0   6 89 87 80 77 73 69 
   6   0   0   0   0   5   0   0   0   0   0   0   0   6   0   0   0   0   0   0   0   0   0   0   0   0   0   6   0   0   0   7 90 88 84 81 80 78 77 
   2   0   0   0   0   0   0   0   0   0   0   0   0   0   0   0   0   0   0   0   0   0   0   0   0   0   0   0   0   0   0   7 93 84 82 81 80 79 78 
   3   0   0   0   0   0   0   0   0   0   0   0   0   0   0   0   0  10   0   0   0   0   0   0   0   0   0   7   7   0   0   6 96 92 91 90 77 68 
   8   0   5   0   0   6   0   0   0   0   0   0   0   0   0   0   0  10   0   0   9   8   0   0   0   0   0   0   0   0   0   5 90 89 84 80 64 
   4   0   0   0   0   0   0   0   0   0   0   8  10   0   0   0   0   0   0   0   0   0   0   6   0   8   0   0   0   6   0   6 92 81 80 79 78 77 
   6   0   0   0   0   0   0   0   0   0   8   8   6   0   7   0   0   3   7   0   0   0   0   0   0   0   0   0   0   0   0   6 88 84 82 81 79 78 
   9   0   0   0   5   0   0   0   0   0   4   0   0   0   0   0   0   0  10   0   0   0   0   0   0   0   0   0   0   0   0   6 87 84 83 79 78 77 
  10   0   0   0   0   0   0   0   0   0   0   0   0   0   0   0   6   0   0   5   0   0   0   9   7   0   0   0   0   0   0   6 91 85 84 83 81 77 
   7   0  10   0   0   0   0   0   0   0   9   0   0   0   0   0   0   0   5   6   6   0   0   0   7   0   0   0   0   0   0   5 91 84 79 78 77 
   1   0   0   0   0   0   5   8   0   0   0   0   0   0   0   0   0   0   0   0  10   0   0   0   0   0   0   0   0   0   0   4 86 85 83 77 
   5   0   0   0   0   0   0   0   0   0   0   0   5   7   0   0   0   0   0   0   0  10   0   5   0   0   0   0   0   0   0   4 92 86 81 77 
   4   0   0   0   0   0   0   0   0   0   5   0   0   0   0   0   0   0   0   8   0   0   6   0   0   0   0   0   0   0   0   2 82 78 
   6   0   0   0   0   0   0   0   0   0   0   0   0   7   9   0   0   0   0   0   0   0   8   0   6   0   0   4   0   0   8   2 78 77 
   7   0   0   0   0   0   0   7   0   0   0   0   0   0   0   0   0   0   0   0   0   0   0   0   0   0   0   0   0   0   0   2 80 77 
   8   0   0   0   0  10   0  10   0   0   0   0   0   0   0   0   0   0   0   0   0   0   0   0   3   0   0   0   0   8   0   2 82 81 
  10   0   0   0   7   0   7   0   0   7   0   0   0   0   0   0   7   0   0   0   0   0   0   0   0   0   0   0   0   3   0   1 83 
  10  10   0   0   0   0   0   0   0   0   0   0   0   0   0   0   0   0   9   0   0   0   0   0   6   0   0   8   0   0   0   1 79 
  10   0   0   0   0   0   0   0   0  10   0   0   0   0   0   6   0   0   0   0   0   0   2   0   0   0   9   0  10   4   0   1 79 
   5   0   0   0   5   0   0   0   0   0   0   0   0   0   0   0   0   0   0   0   0   0   0   0   0   0   0   0   0   0   0   1 79 
   4   0   7   0   0   5   5   0   3   0   0   0   0   5   0   0   0   7   5   0   7   0   0   0   0   0   0   0   5   0   7   1 77 
   8   0   0   0   0   0   0   0   0   0   0   0   0   0   0   0   0   0   0   0   0   0   0   0   0   0   0   0   0   0   0   1 82 
   1   0   0   0   5   0   0   0   0   0   0  10   0   0   0   0   8   0   0   0   0   0   0   0   0   0   0  10   0   0   4   1 81 
   1   0   0   0   0   6   0   0   7   0   6   0   0   0   0   0   0   0   0   0   0   0   0   0   0   0   0   0   0   0   0   1 79 
   4   0   0   5   0   0   0   0   0   0   0   6   0   0   0   0   0   0   0   3   6   0   0   0   0   0   0   0   0   0   0   1 84 
   7   0   0   0   0   0   0   0   0   0   0   0   0   0   0   8   0  10   0   0   0   8   0   0   0   0   0   0   0   0   0   1 102
   7   0   0   0   0   0   0   0   0   0   0   0   0   0   0   0   0   0   4   0   0   0   0   0   0   0   0   0   0   0   0   1 102
   5   0   0   0   0   0   0   0   0   0   0   0   0   0   0   0   0   0   0   0   0   0   0   0   0   7   0   0   0   0   3   1 102
   4   0   0   0   0   0   0   0   0   0   4   0   0   4   0   0   6   2   0   0   0   0   0   0   0   5   0   0   0   0   0   1 102
   5   0   0   0   0   0   0   0   0   0   0   0   0   0   5   0   6   0   0   0   0   7   0   0   0   0   0   6   0   0   6   1 102
   2   0   0  10   0   0   0   0   0   0   0   0   0   0   0   0   0   0   0   0   0   0   0   0   0   0   0   0   0   0   7   1 102
   9   0   0   0   0   0   0   5   9   0   0   5   0   0   0   0   0   0   0   0   0   0   0   0   0   0   0   0   5   0   0   1 102
   7   0   0   0   0   0   0   0   0   0   0   4   0   0   0   0   0   0   0   0   8   0   0   6   6   0   0   0   0   0   0   1 102
   6   0   0   0   0   0   0   0   0   0   0   0   0   0   0   0   5   8   0   0   0   5   0   0   0   0   0   3   0   0   0   1 102
   4   0   0   0   0   0   0   4   0   6   0   5   0   0   0   0   0   0   0   0   0   0   0   0   0   0   0   0   0   0   0   1 102
  10   0   5   0   0   0   0   0   0   0   0   0   7   0   0   0   0   0   0   0   0   6   0   0   0   0   0   0   0   0   3   1 102
   9   0   0   0   0   0   0   0   6   0   0   0   0   0   0   0   0   0   0   7   0   0   0   0   0   0   0   0   0   9   0   1 102
   4   0   0   0   0   0   0   0   0   0   0   0   0   0   0   0   0   0   0   0   0   0   0   0   0   0   0   0   0   6   0   1 102
   1   0   0   0   0   0   0   6   0   0   0   0   0   0   0   0   0   0   5   0   0   0   0   0   0  10   0   0   0   0   9   1 102
   7   0   0   0   0   0   0   0   0   6   0   0   0   0   0   0   0   4   0   0   0   0   0   0   0   6   0   0   0   0   0   1 102
   9   5  10   0   7  10   0   0   0   5   0   0   0   0   0   0   0   0   0   0   0   0   0   0   0   0   0   0   0   0   0   1 102
   9   0   0   8  10   7   0   0   6   0   0  10   0   0   0   0   5   0   0   0   0   0   0   0   0   0   0   0   0   0   0   1 102
   3   0   0   5   0   0   0   0   0   7   0   0   5   0   0   7   0   0   0   0   0   0   0   0   0   0   0   0   0   5   0   1 102
   2   0   0   0   0   0   9   0   0   0   0   0   0   0   0   0   0   3   8   0   0   0   0   0   0   9   0   0   0   0   0   1 102
   1   0   0   0   0   0   0   0   0   0   0   0   0   5   0   0   0   0   0   0   0   0   0   0   0   0   0   0   2   0   0   1 102
   8   0   0   0   7   0   0   0   0   0   6   0   0   0   0   0   0   0   0   0   0   0   3   0   0   0   0   0   0   0   0   1 102
   3   0   0   0   6   0   0   0   9   5   0   0   0   0   0   0   0   0   0   0   0   0   0   0   0   0   0   0   0   0   0   1 102
   6   0   0   0   0   0   0   0   0   0   0   4   0   0   3   0   0   0   0   0   0   0   0   0   0   0   0   0   0   0   0   1 102
   7   0   0   0   0   0   0   0   0   0   0   0   0   0   0   0   0   0   0   0   0   0   9   0   8   5   0   0   0   0   0   1 102
   8   0   0   0   0   0   0   0   0   0   0   0   0   0   0   0   0   0   0   0   0   0   0   0   0   0   0   0   0   0   0   1 102
   0   0   0   0   0   0   0   0   0   0   0   0   0   0   0   0   0   0   0   0   0   0   0   0   0   0   0   0   0   0   0   0 
